0 125
1 126
2 126
3 143
4 132
5 126
6 131
7 142
8 143
9 153
10 139
11 139
12 139
13 139
14 150
15 153
16 138
17 138
18 139
19 138
20 139
21 150
22 149
23 139
24 139
25 139
26 139
27 142
28 139
29 156
30 134
31 135
32 136
33 136
34 138
35 138
36 138
37 138
38 138
39 138
40 154
41 138
42 139
43 141
44 139
45 139
46 151
47 157
48 139
49 139
50 139
51 142
52 139
53 139
54 142
55 139
56 141
57 139
58 139
59 139
60 126
61 143
62 127
63 128
64 140
65 155
66 128
67 131
68 131
69 132
70 135
71 134
72 134
73 136
74 136
75 137
76 138
77 138
78 136
79 137
80 138
81 138
82 147
83 138
84 138
85 138
86 140
87 156
88 139
89 144
90 138
91 138
92 138
93 139
94 139
95 138
96 138
97 139
98 142
99 156
100 139
101 139
102 138
103 139
104 139
105 139
106 139
107 139
108 139
109 139
110 139
111 139
112 156
113 145
114 150
115 139
116 140
117 144
118 139
119 139
120 139
121 139
122 140
123 139
124 142
125 140
126 139
127 139
128 162
129 142
130 126
131 126
132 126
133 126
134 126
135 126
136 128
137 128
138 126
139 141
140 126
141 127
142 126
143 126
144 126
145 130
146 126
147 126
148 126
149 126
150 139
151 126
152 127
153 127
154 127
155 130
156 129
157 128
158 126
159 130
160 129
161 140
162 130
163 131
164 154
165 131
166 130
167 132
168 130
169 151
170 137
171 134
172 144
173 136
174 134
175 136
176 136
177 135
178 135
179 137
180 149
181 136
182 136
183 140
184 135
185 139
186 138
187 138
188 138
189 147
190 137
191 138
192 155
193 138
194 138
195 138
196 138
197 138
198 139
199 138
200 138
201 138
202 154
203 144
204 138
205 138
206 138
207 138
208 138
209 138
210 155
211 143
212 138
213 138
214 138
215 146
216 138
217 139
218 138
219 139
220 138
221 139
222 138
223 139
224 138
225 156
